output/sample2_WL.lp
Minimize
  20 y + max_n0x - min_n0x + max_n0y - min_n0y + max_n1x - min_n1x + max_n1y - min_n1y + max_n2x - min_n2x + max_n2y - min_n2y + max_n3x - min_n3x + max_n3y - min_n3y + max_n4x - min_n4x + max_n4y - min_n4y + max_n5x - min_n5x + max_n5y - min_n5y + max_n7x - min_n7x + max_n7y - min_n7y + max_n8x - min_n8x + max_n8y - min_n8y
Subject To
  c1: x1 - 2 r1 <= 6
  c2: y1 + 2 r1 - y <= -2
  c3: x2 + 2 r2 <= 9
  c4: y2 - 2 r2 - y <= -3
  c5: x3 <= 8
  c6: y3 - y <= -2
  c7: x4 - 2 r4 <= 5
  c8: y4 + 2 r4 - y <= -3
  c9: x5 + r5 <= 8
  c10: y5 - r5 - y <= -3
  c11: x6 - 2 r6 <= 5
  c12: y6 + 2 r6 - y <= -3
  c13: x7 + r7 <= 9
  c14: y7 - r7 - y <= -2
  c15: x8 + 2 r8 <= 8
  c16: y8 - 2 r8 - y <= -4
  c17: x1 - x2 - 2 r1 - 28 p12 - 28 q12 <= -4
  c18: y1 - y2 + 2 r1 - 28 p12 + 28 q12 <= 26
  c19: x1 - x2 - 2 r2 - 28 p12 + 28 q12 >= -27
  c20: y1 - y2 + 2 r2 - 28 p12 - 28 q12 >= -53
  c21: x1 - x3 - 2 r1 - 28 p13 - 28 q13 <= -4
  c22: y1 - y3 + 2 r1 - 28 p13 + 28 q13 <= 26
  c23: x1 - x3 - 28 p13 + 28 q13 >= -26
  c24: y1 - y3 - 28 p13 - 28 q13 >= -54
  c25: x1 - x4 - 2 r1 - 28 p14 - 28 q14 <= -4
  c26: y1 - y4 + 2 r1 - 28 p14 + 28 q14 <= 26
  c27: x1 - x4 + 2 r4 - 28 p14 + 28 q14 >= -23
  c28: y1 - y4 - 2 r4 - 28 p14 - 28 q14 >= -53
  c29: x1 - x5 - 2 r1 - 28 p15 - 28 q15 <= -4
  c30: y1 - y5 + 2 r1 - 28 p15 + 28 q15 <= 26
  c31: x1 - x5 - r5 - 28 p15 + 28 q15 >= -26
  c32: y1 - y5 + r5 - 28 p15 - 28 q15 >= -53
  c33: x1 - x6 - 2 r1 - 28 p16 - 28 q16 <= -4
  c34: y1 - y6 + 2 r1 - 28 p16 + 28 q16 <= 26
  c35: x1 - x6 + 2 r6 - 28 p16 + 28 q16 >= -23
  c36: y1 - y6 - 2 r6 - 28 p16 - 28 q16 >= -53
  c37: x1 - x7 - 2 r1 - 28 p17 - 28 q17 <= -4
  c38: y1 - y7 + 2 r1 - 28 p17 + 28 q17 <= 26
  c39: x1 - x7 - r7 - 28 p17 + 28 q17 >= -27
  c40: y1 - y7 + r7 - 28 p17 - 28 q17 >= -54
  c41: x1 - x8 - 2 r1 - 28 p18 - 28 q18 <= -4
  c42: y1 - y8 + 2 r1 - 28 p18 + 28 q18 <= 26
  c43: x1 - x8 - 2 r8 - 28 p18 + 28 q18 >= -26
  c44: y1 - y8 + 2 r8 - 28 p18 - 28 q18 >= -52
  c45: x2 - x3 + 2 r2 - 28 p23 - 28 q23 <= -1
  c46: y2 - y3 - 2 r2 - 28 p23 + 28 q23 <= 25
  c47: x2 - x3 - 28 p23 + 28 q23 >= -26
  c48: y2 - y3 - 28 p23 - 28 q23 >= -54
  c49: x2 - x4 + 2 r2 - 28 p24 - 28 q24 <= -1
  c50: y2 - y4 - 2 r2 - 28 p24 + 28 q24 <= 25
  c51: x2 - x4 + 2 r4 - 28 p24 + 28 q24 >= -23
  c52: y2 - y4 - 2 r4 - 28 p24 - 28 q24 >= -53
  c53: x2 - x5 + 2 r2 - 28 p25 - 28 q25 <= -1
  c54: y2 - y5 - 2 r2 - 28 p25 + 28 q25 <= 25
  c55: x2 - x5 - r5 - 28 p25 + 28 q25 >= -26
  c56: y2 - y5 + r5 - 28 p25 - 28 q25 >= -53
  c57: x2 - x6 + 2 r2 - 28 p26 - 28 q26 <= -1
  c58: y2 - y6 - 2 r2 - 28 p26 + 28 q26 <= 25
  c59: x2 - x6 + 2 r6 - 28 p26 + 28 q26 >= -23
  c60: y2 - y6 - 2 r6 - 28 p26 - 28 q26 >= -53
  c61: x2 - x7 + 2 r2 - 28 p27 - 28 q27 <= -1
  c62: y2 - y7 - 2 r2 - 28 p27 + 28 q27 <= 25
  c63: x2 - x7 - r7 - 28 p27 + 28 q27 >= -27
  c64: y2 - y7 + r7 - 28 p27 - 28 q27 >= -54
  c65: x2 - x8 + 2 r2 - 28 p28 - 28 q28 <= -1
  c66: y2 - y8 - 2 r2 - 28 p28 + 28 q28 <= 25
  c67: x2 - x8 - 2 r8 - 28 p28 + 28 q28 >= -26
  c68: y2 - y8 + 2 r8 - 28 p28 - 28 q28 >= -52
  c69: x3 - x4 - 28 p34 - 28 q34 <= -2
  c70: y3 - y4 - 28 p34 + 28 q34 <= 26
  c71: x3 - x4 + 2 r4 - 28 p34 + 28 q34 >= -23
  c72: y3 - y4 - 2 r4 - 28 p34 - 28 q34 >= -53
  c73: x3 - x5 - 28 p35 - 28 q35 <= -2
  c74: y3 - y5 - 28 p35 + 28 q35 <= 26
  c75: x3 - x5 - r5 - 28 p35 + 28 q35 >= -26
  c76: y3 - y5 + r5 - 28 p35 - 28 q35 >= -53
  c77: x3 - x6 - 28 p36 - 28 q36 <= -2
  c78: y3 - y6 - 28 p36 + 28 q36 <= 26
  c79: x3 - x6 + 2 r6 - 28 p36 + 28 q36 >= -23
  c80: y3 - y6 - 2 r6 - 28 p36 - 28 q36 >= -53
  c81: x3 - x7 - 28 p37 - 28 q37 <= -2
  c82: y3 - y7 - 28 p37 + 28 q37 <= 26
  c83: x3 - x7 - r7 - 28 p37 + 28 q37 >= -27
  c84: y3 - y7 + r7 - 28 p37 - 28 q37 >= -54
  c85: x3 - x8 - 28 p38 - 28 q38 <= -2
  c86: y3 - y8 - 28 p38 + 28 q38 <= 26
  c87: x3 - x8 - 2 r8 - 28 p38 + 28 q38 >= -26
  c88: y3 - y8 + 2 r8 - 28 p38 - 28 q38 >= -52
  c89: x4 - x5 - 2 r4 - 28 p45 - 28 q45 <= -5
  c90: y4 - y5 + 2 r4 - 28 p45 + 28 q45 <= 25
  c91: x4 - x5 - r5 - 28 p45 + 28 q45 >= -26
  c92: y4 - y5 + r5 - 28 p45 - 28 q45 >= -53
  c93: x4 - x6 - 2 r4 - 28 p46 - 28 q46 <= -5
  c94: y4 - y6 + 2 r4 - 28 p46 + 28 q46 <= 25
  c95: x4 - x6 + 2 r6 - 28 p46 + 28 q46 >= -23
  c96: y4 - y6 - 2 r6 - 28 p46 - 28 q46 >= -53
  c97: x4 - x7 - 2 r4 - 28 p47 - 28 q47 <= -5
  c98: y4 - y7 + 2 r4 - 28 p47 + 28 q47 <= 25
  c99: x4 - x7 - r7 - 28 p47 + 28 q47 >= -27
  c100: y4 - y7 + r7 - 28 p47 - 28 q47 >= -54
  c101: x4 - x8 - 2 r4 - 28 p48 - 28 q48 <= -5
  c102: y4 - y8 + 2 r4 - 28 p48 + 28 q48 <= 25
  c103: x4 - x8 - 2 r8 - 28 p48 + 28 q48 >= -26
  c104: y4 - y8 + 2 r8 - 28 p48 - 28 q48 >= -52
  c105: x5 - x6 + r5 - 28 p56 - 28 q56 <= -2
  c106: y5 - y6 - r5 - 28 p56 + 28 q56 <= 25
  c107: x5 - x6 + 2 r6 - 28 p56 + 28 q56 >= -23
  c108: y5 - y6 - 2 r6 - 28 p56 - 28 q56 >= -53
  c109: x5 - x7 + r5 - 28 p57 - 28 q57 <= -2
  c110: y5 - y7 - r5 - 28 p57 + 28 q57 <= 25
  c111: x5 - x7 - r7 - 28 p57 + 28 q57 >= -27
  c112: y5 - y7 + r7 - 28 p57 - 28 q57 >= -54
  c113: x5 - x8 + r5 - 28 p58 - 28 q58 <= -2
  c114: y5 - y8 - r5 - 28 p58 + 28 q58 <= 25
  c115: x5 - x8 - 2 r8 - 28 p58 + 28 q58 >= -26
  c116: y5 - y8 + 2 r8 - 28 p58 - 28 q58 >= -52
  c117: x6 - x7 - 2 r6 - 28 p67 - 28 q67 <= -5
  c118: y6 - y7 + 2 r6 - 28 p67 + 28 q67 <= 25
  c119: x6 - x7 - r7 - 28 p67 + 28 q67 >= -27
  c120: y6 - y7 + r7 - 28 p67 - 28 q67 >= -54
  c121: x6 - x8 - 2 r6 - 28 p68 - 28 q68 <= -5
  c122: y6 - y8 + 2 r6 - 28 p68 + 28 q68 <= 25
  c123: x6 - x8 - 2 r8 - 28 p68 + 28 q68 >= -26
  c124: y6 - y8 + 2 r8 - 28 p68 - 28 q68 >= -52
  c125: x7 - x8 + r7 - 28 p78 - 28 q78 <= -1
  c126: y7 - y8 - r7 - 28 p78 + 28 q78 <= 26
  c127: x7 - x8 - 2 r8 - 28 p78 + 28 q78 >= -26
  c128: y7 - y8 + 2 r8 - 28 p78 - 28 q78 >= -52
  c129: max_n0x - x1 >= 2
  c130: min_n0x - x1 <= 2
  c131: max_n0y - y1 >= 1
  c132: min_n0y - y1 <= 1
  c133: max_n0x - x2 >= 0
  c134: min_n0x - x2 <= 0
  c135: max_n0y - y2 >= 1
  c136: min_n0y - y2 <= 1
  c137: max_n0x - x8 >= 1
  c138: min_n0x - x8 <= 1
  c139: max_n0y - y8 >= 2
  c140: min_n0y - y8 <= 2
  c141: max_n0x >= 0
  c142: min_n0x <= 0
  c143: max_n0y - 0.5 y >= 0
  c144: min_n0y - 0.5 y <= 0
  c145: max_n1x - x2 >= 0
  c146: min_n1x - x2 <= 0
  c147: max_n1y - y2 >= 1
  c148: min_n1y - y2 <= 1
  c149: max_n1x - x6 >= 2
  c150: min_n1x - x6 <= 2
  c151: max_n1y - y6 >= 1
  c152: min_n1y - y6 <= 1
  c153: max_n2x - x3 >= 1
  c154: min_n2x - x3 <= 1
  c155: max_n2y - y3 >= 1
  c156: min_n2y - y3 <= 1
  c157: max_n2x - x7 >= 0
  c158: min_n2x - x7 <= 0
  c159: max_n2y - y7 >= 1
  c160: min_n2y - y7 <= 1
  c161: max_n2x >= 5
  c162: min_n2x <= 5
  c163: max_n2y - y >= 0
  c164: min_n2y - y <= 0
  c165: max_n3x - x4 >= 2
  c166: min_n3x - x4 <= 2
  c167: max_n3y - y4 >= 1
  c168: min_n3y - y4 <= 1
  c169: max_n3x - x5 >= 1
  c170: min_n3x - x5 <= 1
  c171: max_n3y - y5 >= 1
  c172: min_n3y - y5 <= 1
  c173: max_n3x >= 5
  c174: min_n3x <= 5
  c175: max_n3y - y >= 0
  c176: min_n3y - y <= 0
  c177: max_n4x - x1 >= 2
  c178: min_n4x - x1 <= 2
  c179: max_n4y - y1 >= 1
  c180: min_n4y - y1 <= 1
  c181: max_n4x - x4 >= 2
  c182: min_n4x - x4 <= 2
  c183: max_n4y - y4 >= 1
  c184: min_n4y - y4 <= 1
  c185: max_n4x - x5 >= 1
  c186: min_n4x - x5 <= 1
  c187: max_n4y - y5 >= 1
  c188: min_n4y - y5 <= 1
  c189: max_n5x - x2 >= 0
  c190: min_n5x - x2 <= 0
  c191: max_n5y - y2 >= 1
  c192: min_n5y - y2 <= 1
  c193: max_n5x - x3 >= 1
  c194: min_n5x - x3 <= 1
  c195: max_n5y - y3 >= 1
  c196: min_n5y - y3 <= 1
  c197: max_n5x - x4 >= 2
  c198: min_n5x - x4 <= 2
  c199: max_n5y - y4 >= 1
  c200: min_n5y - y4 <= 1
  c201: max_n5x - x6 >= 2
  c202: min_n5x - x6 <= 2
  c203: max_n5y - y6 >= 1
  c204: min_n5y - y6 <= 1
  c205: max_n5x - x7 >= 0
  c206: min_n5x - x7 <= 0
  c207: max_n5y - y7 >= 1
  c208: min_n5y - y7 <= 1
  c209: max_n5x >= 10
  c210: min_n5x <= 10
  c211: max_n5y - 0.5 y >= 0
  c212: min_n5y - 0.5 y <= 0
  c213: max_n7x - x1 >= 2
  c214: min_n7x - x1 <= 2
  c215: max_n7y - y1 >= 1
  c216: min_n7y - y1 <= 1
  c217: max_n7x - x3 >= 1
  c218: min_n7x - x3 <= 1
  c219: max_n7y - y3 >= 1
  c220: min_n7y - y3 <= 1
  c221: max_n7x - x5 >= 1
  c222: min_n7x - x5 <= 1
  c223: max_n7y - y5 >= 1
  c224: min_n7y - y5 <= 1
  c225: max_n7x >= 5
  c226: min_n7x <= 5
  c227: max_n7y >= 0
  c228: min_n7y <= 0
  c229: max_n8x - x3 >= 1
  c230: min_n8x - x3 <= 1
  c231: max_n8y - y3 >= 1
  c232: min_n8y - y3 <= 1
  c233: max_n8x - x4 >= 2
  c234: min_n8x - x4 <= 2
  c235: max_n8y - y4 >= 1
  c236: min_n8y - y4 <= 1
  c237: max_n8x - x8 >= 1
  c238: min_n8x - x8 <= 1
  c239: max_n8y - y8 >= 2
  c240: min_n8y - y8 <= 2
Bounds

Integers

Binaries
  r1 r2 r3 r4 r5 r6 r7 r8 p12 p13 p14 p15 p16 p17 p18 p23 p24 p25 p26 p27 p28 p34 p35 p36 p37 p38 p45 p46 p47 p48 p56 p57 p58 p67 p68 p78 q12 q13 q14 q15 q16 q17 q18 q23 q24 q25 q26 q27 q28 q34 q35 q36 q37 q38 q45 q46 q47 q48 q56 q57 q58 q67 q68 q78
End
