visualize/sample2_WL.sol
# Objective value = 187.5
y 7
max_n0x 5
min_n0x 0
max_n0y 3.5
min_n0y 1
max_n1x 8
min_n1x 5
max_n1y 3
min_n1y 3
max_n2x 5
min_n2x 4
max_n2y 7
min_n2y 6
max_n3x 4
min_n3x 2
max_n3y 7
min_n3y 3
max_n4x 4
min_n4x 2
max_n4y 3
min_n4y 1
max_n5x 9
min_n5x 2
max_n5y 6
min_n5y 3
max_n7x 4
min_n7x 2
max_n7y 6
min_n7y 0
max_n8x 5
min_n8x 2
max_n8y 6
min_n8y 2
x1 0
r1 0
y1 0
x2 5
r2 0
y2 2
x3 3
y3 5
x4 0
r4 1
y4 2
x5 3
r5 0
y5 2
x6 6
r6 1
y6 2
x7 5
r7 0
y7 5
x8 4
r8 1
y8 0
p12 0
q12 0
p13 0
q13 1
p14 0
q14 1
p15 0
q15 1
p16 0
q16 1
p17 0
q17 0
p18 0
q18 0
p23 1
q23 0
p24 1
q24 0
p25 1
q25 0
p26 0
q26 0
p27 0
q27 1
p28 1
q28 1
p34 1
q34 0
p35 1
q35 1
p36 0
q36 0
p37 0
q37 0
p38 1
q38 1
p45 0
q45 0
p46 0
q46 0
p47 0
q47 0
p48 1
q48 1
p56 0
q56 0
p57 0
q57 1
p58 1
q58 1
p67 1
q67 0
p68 1
q68 1
p78 1
q78 1
r3 0
